code/experiments/eil51_sub/eil51_n13.tsp
NAME : eil51_n13
COMMENT : 13-city problem (Christofides/Eilon)
TYPE : TSP
DIMENSION : 13
EDGE_WEIGHT_TYPE : CEIL_2D
NODE_COORD_SECTION
1 49 49
2 31 32
3 36 16
4 43 67
5 58 27
6 37 69
7 32 22
8 45 35
9 5 6
10 25 55
11 48 28
12 56 37
13 30 40
EOF
