code/experiments/eil51_sub/eil51_n13.opt.tour
13
0 11 4 10 7 6 2 8 1 12 
9 5 3 
